(set-info :smt-lib-version 2.6)
(set-logic QF_S)
(set-info :source |
Generated by: Shaoke Cui
Generated on: 2025-04-10
Application: Using String Solvers to solve string matching problems
Target solver: cvc5, OSTRICH, Z3, Z3alpha, Z3-noodler
Benchmarks for substring matching problem, which needs to determine whether the pattern string exists in the text string.
|)
(set-info :license "https://creativecommons.org/licenses/by/4.0/")
(set-info :category "crafted")
(set-info :status sat)
(declare-fun a() String)
(declare-fun b() String)
(assert (= a "ggggggggggggggggggggggggggggggggggggggggggggggggggggggggggggggggggggggggggggggggggggggggggggggggggggggggggggggggggggggg"))
(assert (= b "gggggggggggggggggggggggggggggggggggggggggggggggggggggggggggggggggggggggggggggggggggggggggggggggggggggggggggggggggggg"))
(assert (str.contains (str.++ b b b b b a b a a a a a a b b a b b b a a a a a b b b b a b a a a a b b b a b a b b a a a a b a b a a a a b a b b a a b a a b a b a b a a a b a b b a b b a b a b a a b a a b a b a b b a a a b a b a b b b b b b a a b b a a b b a a a b a a a b b a b b a a a a b b a b b a b a a a b a a b a b a b a b a a b b a a b a b a b b b b a b b b a a a a b b a b b a b b a a b a b b b b b b b b a a b b a b b a b a b a b b b a a a b a b a b b a b b a b a b b a a b a b a b a a a b a b b b a b a b b b b b b b b a b a a b a b a b a a a a a a b a a a b b a a a a b a b b b a b b b b a b b b a b a b b b b a b b a b a b b a a b a b a a a a a a a b b b b b a b a a b b a a b b a b b a b b a b b b b a b a a a b a b b b b a b a a b b a a b a b a b a a a a a a b a a b b b a b a a a a a a b a b a b b a b a b a a a b a b a b a b a a a b a b b a b a a b a a a b b b a a a b a a a a b a a b b b b a a b a b a a b b b a a b a a a a a a a b b b b a a b a a b a a b b b a b a b b b b a a b b b a a b b b b b a b a a b a b a b b b b b a b a a b a a b a b a b b a b b b a a b a a b b b b a b a a b a a a b a a a b b a b b b b a b b a b a b b a a b a a b a a a a a b b a b b a a a a a a b a a b a b b b b a b b b a b a a a b a a a b a a b b a b a b a b b b b b a b a b a a b a b a a b b b a a a b b a b b b a b a a a a a a a b b b a b b b b a a b b b a b a b a b b a a b b a a b a a b a a b b b b b b b b a b b a b a a a a b b a a b a b b b b b b a b a b a b a b b a a b a a b a b a a b b a b b b b a a a b b a a b b b b a b a a b b b a a b a b b b b a b b a a a a a a a b a a b a b a a b a a b b a a a b a a b a b b a b b a a a b a a a a b a b a b b a a b b a a a b a b b a a b b b a b b a a b a b b a a b a a b b b b b a a b a b b b b b a b a b b b b b b a b b b a a a a a a b b b b a b a a a b b b b a b a a a a b b b a a b b b b a b b b a b b a b b b a a a b b a b a b a b b b b b b b b b a a b b a b a a a a a b b a b a b a a a a a a a a b a b a a a a a a a a b a b b b b a b a a b a b a a a b a a b a a b b a a b b b b a a b a a b a a a a b b a a a b a a b a a a a a b a a a a b a a b b b b a b b a a a b a a a b a a b b a b b b a a a a a b b b b a b a a a a b b a b a b b a a b a a b a a b b b a a a a a b b b b a b b a a a b a a a a a b b b b a b b a b b b b a b b b a a a a a b b b a b a b b a b a a a b b b a b a a a a a a a a b b a a b b b b b b a a a b b b b b a b a a a b a a b a a a a b b b b b a b a b b a a b b a a a b a b a b b a a b a b b a a b a b b a a b b a b b b a b a a a b a a a b b b b a a b a a a a b b a b b b a a b b a a a a a a b b a a a a a b b b b b a a b b b a a b b b a b b b b b a b b a a a b b b  "1" a a a a a a a a a a a a a a a a a a a a a a a a a a a a a a a a a a a a a a a a a a a a a a a a a a a a a a a a a a a a a a a a a a a a a a a a a a a a a a a a a a a a a a a a a a a a a a a a a a a a a a a a a a a a a a a a a a a a a a a a a a a a a a a a a a a a a a a a a a a a a a a a a a a a a a a a a a a a a a a a a a a a a a a a a a a a a a a a a a a a a a a a a a a a a a a a a a a a a a a a a a a a a a a a a a a a a a a a ) (str.++ a b a b a b b b a b b a b b a b a a a a a a b a b a a a a a b a b b a b a a b b b b b a a b a a a b b a b b a b b a a a b a a b a a b a a a a a a a b b b a a a b b a a b b b a a a b b b b b a b b a a a a b b b b b a b a a a b a a a a a a b a b b a a a a b b b a b a a a a b a b b b b a a b b b b b a b a b b b b b b a b b a a b b a b b a a a b a a a a a a a b b b b a a a b a b b b a a b b a a b b b b a a b a b b a a a b a a  "1")))
(check-sat)
(exit)
